268,302
252,287
47,72
160,45
21,117
103,21
236,239
373,171
136,219
274,353
400,297
163,56
112,310
74,30
13,227
378,292
354,157
96,326
11,398
90,30
269,48
38,393
51,388
334,254
9,308
375,362
209,27
314,351
85,400
354,21
333,391
188,368
338,354
386,13
216,399
259,175
360,104
45,222
314,323
189,205
171,290
58,168
6,94
299,346
303,101
22,282
247,57
184,272
43,340
313,95
